Solving original (integer) problem with strategy gdp.hull_exact...
--- Job model.gms Start 02/14/26 17:29:59 52.2.0 d8e408be LEX-LEG x86 64bit/Linux
--- Applying:
    /package/gams/52.2/gmsprmun.txt
--- GAMS Parameters defined
    Input /local/scratch/a/sgusev/repos/k_means/data/gams_gurobi_gdp.hull_exact/no_mode/2026-02-14_17-29-58/original/model.gms
    Output /local/scratch/a/sgusev/repos/k_means/data/gams_gurobi_gdp.hull_exact/no_mode/2026-02-14_17-29-58/original/output.lst
    ScrDir /local/scratch/a/sgusev/repos/k_means/data/gams_gurobi_gdp.hull_exact/no_mode/2026-02-14_17-29-58/original/225a/
    SysDir /package/gams/52.2/
    CurDir /local/scratch/a/sgusev/repos/k_means/data/gams_gurobi_gdp.hull_exact/no_mode/2026-02-14_17-29-58/original/
    LogOption 3
    AppendLog 1
Licensee: David Bernal / SECQUOIA Research Group         G251008+0003Ac-GEN
          Purdue University, Davidson School of Chemical EngineeringDCE4838
          225a/gamslice.dat
          5a82958a-fbca-4a23
          node:66820903 mem:995 cores:48 ipport:53331 v:2                  
          Evaluation license: Not for commercial or production use
          The time-limited license stops working on : Jun 30, 2027
System information: 48 physical cores and 995 Gb physical memory detected
GAMS 52.2.0   Copyright (C) 1987-2025 GAMS Development. All rights reserved
--- Starting compilation
--- model.gms(1652) 2 Mb
--- $echo File /local/scratch/a/sgusev/repos/k_means/data/gams_gurobi_gdp.hull_exact/no_mode/2026-02-14_17-29-58/original/gurobi.opt
--- model.gms(2469) 2 Mb
--- Starting execution: elapsed 0:00:00.011
--- model.gms(1661) 3 Mb
--- Generating MINLP model GAMS_MODEL
--- model.gms(1665) 5 Mb
---   497 rows  254 columns  1,201 non-zeroes
---   819 nl-code  156 nl-non-zeroes
---   39 discrete-columns
--- Range statistics (absolute non-zero finite values)
--- RHS       [min, max] : [ 1.000E+00, 1.000E+00] - Zero values observed as well
--- Bound     [min, max] : [ 1.000E+00, 5.200E+01] - Zero values observed as well
--- Matrix    [min, max] : [ 1.000E+00, 5.200E+01] - Zero values observed as well
--- model.gms(1665) 3 Mb
--- Executing GUROBI (Solvelink=5): elapsed 0:00:00.015
Reading parameter(s) from "/local/scratch/a/sgusev/repos/k_means/data/gams_gurobi_gdp.hull_exact/no_mode/2026-02-14_17-29-58/original/gurobi.opt"
>>  NonConvex 2
>>  Threads 1
>>  MIPGap 1e-06
>>  MIPGapAbs 1e-10
>>  FeasibilityTol 1e-06
>>  OptimalityTol 1e-06
>>  IntFeasTol 1e-05
Finished reading from "/local/scratch/a/sgusev/repos/k_means/data/gams_gurobi_gdp.hull_exact/no_mode/2026-02-14_17-29-58/original/gurobi.opt"

... GRB_LICENSE_FILE = /local/scratch/a/sgusev/gurobi.lic

    Gurobi           52.2.0 d8e408be Dec 8, 2025           LEG x86 64bit/Linux    

... GAMS/Gurobi Link license.
... GMO Q Extraction (ThreePass): 0.00s

    Gurobi Optimizer version 13.0.0 build v13.0.0rc1 (linux64 - "Oracle Linux Server 9.7")
    
    CPU model: AMD EPYC 7643 48-Core Processor, instruction set [SSE2|AVX|AVX2]
    Thread count: 48 physical cores, 96 logical processors, using up to 1 threads
    
    Non-default parameters:
    TimeLimit  300
    MIPGap  1e-06
    LogToConsole  0
    NonConvex  2
    Threads  1
    
    Optimize a model with 457 rows, 253 columns and 1031 nonzeros (Min)
    Model fingerprint: 0x0b90dd65
    Model has 13 linear objective coefficients
    Model has 39 quadratic constraints
    Variable types: 214 continuous, 39 integer (0 binary)
    Coefficient statistics:
      Matrix range     [1e+00, 5e+01]
      QMatrix range    [8e-02, 2e+00]
      Objective range  [1e+00, 1e+00]
      Bounds range     [1e+00, 5e+01]
      RHS range        [1e+00, 1e+00]
    Presolve removed 78 rows and 91 columns
    Presolve time: 0.00s
    Presolved: 619 rows, 357 columns, 1609 nonzeros
    Presolved model has 78 quadratic constraint(s)
    Variable types: 318 continuous, 39 integer (39 binary)
    
    Root relaxation: objective 0.000000e+00, 165 iterations, 0.00 seconds (0.00 work units)
    
        Nodes    |    Current Node    |     Objective Bounds      |     Work
     Expl Unexpl |  Obj  Depth IntInf | Incumbent    BestBd   Gap | It/Node Time
    
    H    0     0                       2.8009549    0.00000   100%     -    0s
    *    0     0               0       2.8009549    0.00000   100%     -    0s
         0     0    0.00000    0   14    2.80095    0.00000   100%     -    0s
         0     0    0.00000    0   18    2.80095    0.00000   100%     -    0s
         0     0    0.00000    0   18    2.80095    0.00000   100%     -    0s
         0     0    0.00000    0   21    2.80095    0.00000   100%     -    0s
         0     0    0.00000    0   19    2.80095    0.00000   100%     -    0s
         0     0    0.00000    0   20    2.80095    0.00000   100%     -    0s
         0     0    0.00000    0   26    2.80095    0.00000   100%     -    0s
         0     0    0.00000    0   11    2.80095    0.00000   100%     -    0s
         0     0    0.00000    0   19    2.80095    0.00000   100%     -    0s
         0     0    0.00000    0   24    2.80095    0.00000   100%     -    0s
         0     0    0.00000    0   18    2.80095    0.00000   100%     -    0s
         0     0    0.00000    0   20    2.80095    0.00000   100%     -    0s
         0     0    0.00000    0   19    2.80095    0.00000   100%     -    0s
         0     0    0.00000    0   22    2.80095    0.00000   100%     -    0s
         0     0    0.00000    0   22    2.80095    0.00000   100%     -    0s
         0     0    0.00000    0   25    2.80095    0.00000   100%     -    0s
         0     0    0.00000    0   17    2.80095    0.00000   100%     -    0s
         0     0    0.00000    0   23    2.80095    0.00000   100%     -    0s
         0     0    0.00000    0   21    2.80095    0.00000   100%     -    0s
         0     0    0.00000    0   22    2.80095    0.00000   100%     -    0s
         0     0    0.00000    0   22    2.80095    0.00000   100%     -    0s
         0     0    0.00000    0   24    2.80095    0.00000   100%     -    0s
         0     0    0.00000    0   18    2.80095    0.00000   100%     -    0s
         0     0    0.00000    0   25    2.80095    0.00000   100%     -    0s
         0     0    0.00000    0   18    2.80095    0.00000   100%     -    0s
         0     0    0.00000    0   18    2.80095    0.00000   100%     -    0s
         0     0    0.00000    0   18    2.80095    0.00000   100%     -    0s
         0     0    0.00000    0   20    2.80095    0.00000   100%     -    0s
         0     0    0.00000    0   20    2.80095    0.00000   100%     -    0s
         0     0    0.00000    0   14    2.80095    0.00000   100%     -    0s
         0     0    0.00000    0   14    2.80095    0.00000   100%     -    0s
         0     0    0.00000    0   21    2.80095    0.00000   100%     -    0s
         0     0    0.00000    0   21    2.80095    0.00000   100%     -    0s
         0     0    0.00000    0   24    2.80095    0.00000   100%     -    0s
         0     0    0.00000    0   24    2.80095    0.00000   100%     -    0s
         0     0    0.00000    0   24    2.80095    0.00000   100%     -    0s
         0     0    0.00000    0   24    2.80095    0.00000   100%     -    0s
         0     0    0.00000    0   24    2.80095    0.00000   100%     -    0s
         0     0    0.00000    0   21    2.80095    0.00000   100%     -    0s
         0     0    0.00000    0   21    2.80095    0.00000   100%     -    0s
         0     0    0.00000    0   20    2.80095    0.00000   100%     -    0s
         0     0    0.00000    0   21    2.80095    0.00000   100%     -    0s
         0     0    0.00000    0   18    2.80095    0.00000   100%     -    0s
         0     0    0.00000    0   24    2.80095    0.00000   100%     -    0s
         0     0    0.00000    0   24    2.80095    0.00000   100%     -    0s
         0     0    0.00000    0   22    2.80095    0.00000   100%     -    0s
         0     0    0.00000    0   14    2.80095    0.00000   100%     -    0s
         0     0    0.00000    0   20    2.80095    0.00000   100%     -    0s
         0     0    0.00000    0   20    2.80095    0.00000   100%     -    0s
         0     0    0.00000    0   26    2.80095    0.00000   100%     -    0s
         0     0    0.00000    0   26    2.80095    0.00000   100%     -    0s
         0     0    0.00000    0   22    2.80095    0.00000   100%     -    0s
         0     0    0.00000    0   21    2.80095    0.00000   100%     -    0s
         0     0    0.00000    0   19    2.80095    0.00000   100%     -    0s
         0     0    0.00000    0   19    2.80095    0.00000   100%     -    0s
         0     0    0.00000    0   22    2.80095    0.00000   100%     -    0s
         0     0    0.00000    0   19    2.80095    0.00000   100%     -    0s
         0     0    0.00000    0   24    2.80095    0.00000   100%     -    0s
         0     0    0.00000    0   23    2.80095    0.00000   100%     -    0s
         0     0    0.00000    0   22    2.80095    0.00000   100%     -    0s
         0     0    0.00000    0   17    2.80095    0.00000   100%     -    0s
         0     0    0.00000    0   23    2.80095    0.00000   100%     -    0s
         0     0    0.00000    0   21    2.80095    0.00000   100%     -    0s
         0     0    0.00000    0   22    2.80095    0.00000   100%     -    0s
         0     0    0.00000    0   16    2.80095    0.00000   100%     -    0s
         0     0    0.00000    0   22    2.80095    0.00000   100%     -    0s
         0     0    0.00000    0   16    2.80095    0.00000   100%     -    0s
         0     0    0.00000    0   16    2.80095    0.00000   100%     -    0s
         0     0    0.00000    0   16    2.80095    0.00000   100%     -    0s
         0     0    0.00000    0   22    2.80095    0.00000   100%     -    0s
         0     0    0.00000    0   19    2.80095    0.00000   100%     -    0s
         0     0    0.00000    0   19    2.80095    0.00000   100%     -    0s
         0     0    0.00000    0   18    2.80095    0.00000   100%     -    0s
         0     0    0.00000    0   22    2.80095    0.00000   100%     -    0s
         0     0    0.00000    0   21    2.80095    0.00000   100%     -    0s
         0     0    0.00000    0   22    2.80095    0.00000   100%     -    0s
         0     0    0.00000    0   17    2.80095    0.00000   100%     -    0s
         0     0    0.00000    0   19    2.80095    0.00000   100%     -    0s
         0     0    0.00000    0   18    2.80095    0.00000   100%     -    0s
         0     0    0.00000    0   22    2.80095    0.00000   100%     -    0s
         0     0    0.00000    0   22    2.80095    0.00000   100%     -    0s
         0     0    0.00000    0   20    2.80095    0.00000   100%     -    0s
         0     0    0.00000    0   20    2.80095    0.00000   100%     -    0s
         0     0    0.00000    0   22    2.80095    0.00000   100%     -    0s
         0     0    0.00000    0   21    2.80095    0.00000   100%     -    0s
         0     0    0.00000    0   25    2.80095    0.00000   100%     -    0s
         0     0    0.00000    0   22    2.80095    0.00000   100%     -    0s
         0     0    0.00000    0   26    2.80095    0.00000   100%     -    0s
         0     0    0.00000    0   21    2.80095    0.00000   100%     -    0s
         0     0    0.00000    0   22    2.80095    0.00000   100%     -    0s
         0     0    0.00000    0   22    2.80095    0.00000   100%     -    0s
         0     0    0.00000    0   24    2.80095    0.00000   100%     -    0s
         0     0    0.00000    0   21    2.80095    0.00000   100%     -    0s
         0     0    0.00000    0   21    2.80095    0.00000   100%     -    0s
         0     0    0.00000    0   16    2.80095    0.00000   100%     -    0s
         0     0    0.00000    0   25    2.80095    0.00000   100%     -    0s
         0     0    0.00000    0   21    2.80095    0.00000   100%     -    0s
         0     0    0.00000    0   22    2.80095    0.00000   100%     -    0s
         0     0    0.00000    0   22    2.80095    0.00000   100%     -    0s
         0     0    0.00000    0   22    2.80095    0.00000   100%     -    0s
         0     0    0.00000    0   21    2.80095    0.00000   100%     -    0s
         0     0    0.00000    0   27    2.80095    0.00000   100%     -    0s
         0     0    0.00000    0   25    2.80095    0.00000   100%     -    0s
         0     0    0.00000    0   25    2.80095    0.00000   100%     -    0s
         0     0    0.00000    0   25    2.80095    0.00000   100%     -    0s
         0     0    0.00000    0   21    2.80095    0.00000   100%     -    0s
         0     0    0.00000    0   21    2.80095    0.00000   100%     -    0s
         0     0    0.00000    0   23    2.80095    0.00000   100%     -    0s
         0     0    0.00000    0   19    2.80095    0.00000   100%     -    0s
         0     0    0.00000    0   18    2.80095    0.00000   100%     -    0s
         0     0    0.00000    0   18    2.80095    0.00000   100%     -    0s
         0     0    0.00000    0   20    2.80095    0.00000   100%     -    0s
         0     0    0.00000    0   20    2.80095    0.00000   100%     -    0s
         0     0    0.00000    0   23    2.80095    0.00000   100%     -    0s
         0     0    0.00000    0   23    2.80095    0.00000   100%     -    0s
         0     0    0.00000    0   21    2.80095    0.00000   100%     -    0s
         0     0    0.00000    0   21    2.80095    0.00000   100%     -    0s
         0     0    0.00000    0   23    2.80095    0.00000   100%     -    0s
         0     0    0.00000    0   20    2.80095    0.00000   100%     -    0s
         0     0    0.00000    0   20    2.80095    0.00000   100%     -    0s
         0     0    0.00000    0   20    2.80095    0.00000   100%     -    0s
         0     0    0.00000    0   24    2.80095    0.00000   100%     -    0s
         0     0    0.00000    0   16    2.80095    0.00000   100%     -    0s
         0     0    0.00000    0   24    2.80095    0.00000   100%     -    0s
         0     0    0.00000    0   21    2.80095    0.00000   100%     -    0s
         0     0    0.00000    0   23    2.80095    0.00000   100%     -    0s
         0     0    0.00000    0   22    2.80095    0.00000   100%     -    0s
         0     0    0.00000    0   24    2.80095    0.00000   100%     -    0s
         0     0    0.00000    0   20    2.80095    0.00000   100%     -    0s
         0     0    0.00000    0   20    2.80095    0.00000   100%     -    0s
         0     0    0.00000    0   20    2.80095    0.00000   100%     -    0s
         0     0    0.00000    0   22    2.80095    0.00000   100%     -    0s
         0     0    0.00000    0   21    2.80095    0.00000   100%     -    0s
         0     0    0.00000    0   21    2.80095    0.00000   100%     -    0s
         0     0    0.00000    0   21    2.80095    0.00000   100%     -    0s
         0     0    0.00000    0   24    2.80095    0.00000   100%     -    0s
         0     0    0.00000    0   21    2.80095    0.00000   100%     -    0s
         0     0    0.00000    0   24    2.80095    0.00000   100%     -    0s
         0     0    0.00000    0   21    2.80095    0.00000   100%     -    0s
         0     0    0.00000    0   21    2.80095    0.00000   100%     -    0s
         0     0    0.00000    0   20    2.80095    0.00000   100%     -    0s
         0     0    0.00000    0   24    2.80095    0.00000   100%     -    0s
         0     0    0.00000    0   18    2.80095    0.00000   100%     -    0s
         0     0    0.00000    0   22    2.80095    0.00000   100%     -    0s
         0     0    0.00000    0   22    2.80095    0.00000   100%     -    0s
         0     0    0.00000    0   22    2.80095    0.00000   100%     -    0s
         0     0    0.00000    0   22    2.80095    0.00000   100%     -    0s
         0     0    0.00000    0   22    2.80095    0.00000   100%     -    0s
         0     0    0.00000    0   22    2.80095    0.00000   100%     -    0s
         0     0    0.00000    0   22    2.80095    0.00000   100%     -    0s
         0     0    0.00000    0   18    2.80095    0.00000   100%     -    0s
         0     0    0.00000    0   24    2.80095    0.00000   100%     -    0s
         0     0    0.00000    0   24    2.80095    0.00000   100%     -    0s
         0     0    0.00000    0   25    2.80095    0.00000   100%     -    0s
         0     0    0.00000    0   23    2.80095    0.00000   100%     -    0s
         0     0    0.00000    0   26    2.80095    0.00000   100%     -    0s
         0     0    0.00000    0   24    2.80095    0.00000   100%     -    0s
         0     0    0.00000    0   25    2.80095    0.00000   100%     -    0s
         0     0    0.00000    0   16    2.80095    0.00000   100%     -    0s
         0     0    0.00000    0   24    2.80095    0.00000   100%     -    0s
         0     0    0.00000    0   24    2.80095    0.00000   100%     -    0s
         0     0    0.00000    0   22    2.80095    0.00000   100%     -    0s
         0     0    0.00000    0   22    2.80095    0.00000   100%     -    0s
         0     0    0.00000    0   20    2.80095    0.00000   100%     -    0s
         0     0    0.00000    0   20    2.80095    0.00000   100%     -    0s
         0     0    0.00000    0   28    2.80095    0.00000   100%     -    0s
         0     0    0.00000    0   18    2.80095    0.00000   100%     -    0s
         0     0    0.00000    0   22    2.80095    0.00000   100%     -    0s
         0     0    0.00000    0   22    2.80095    0.00000   100%     -    0s
         0     0    0.00000    0   20    2.80095    0.00000   100%     -    0s
         0     0    0.00000    0   18    2.80095    0.00000   100%     -    0s
         0     0    0.00000    0   22    2.80095    0.00000   100%     -    0s
         0     0    0.00000    0   22    2.80095    0.00000   100%     -    0s
         0     0    0.00000    0   20    2.80095    0.00000   100%     -    0s
         0     0    0.00000    0   20    2.80095    0.00000   100%     -    0s
         0     0    0.00000    0   22    2.80095    0.00000   100%     -    0s
         0     0    0.00000    0   21    2.80095    0.00000   100%     -    0s
         0     0    0.00000    0   25    2.80095    0.00000   100%     -    0s
         0     0    0.00000    0   17    2.80095    0.00000   100%     -    0s
         0     0    0.00000    0   25    2.80095    0.00000   100%     -    0s
         0     0    0.00000    0   24    2.80095    0.00000   100%     -    0s
         0     0    0.00000    0   23    2.80095    0.00000   100%     -    0s
         0     0    0.00000    0   20    2.80095    0.00000   100%     -    0s
         0     0    0.00000    0   20    2.80095    0.00000   100%     -    0s
         0     0    0.00000    0   18    2.80095    0.00000   100%     -    0s
         0     0    0.00000    0   20    2.80095    0.00000   100%     -    0s
         0     0    0.00000    0   18    2.80095    0.00000   100%     -    0s
         0     0    0.00000    0   21    2.80095    0.00000   100%     -    0s
         0     0    0.00000    0   17    2.80095    0.00000   100%     -    0s
         0     0    0.00000    0   22    2.80095    0.00000   100%     -    0s
         0     0    0.00000    0   22    2.80095    0.00000   100%     -    0s
         0     0    0.00000    0   22    2.80095    0.00000   100%     -    0s
         0     0    0.00000    0   14    2.80095    0.00000   100%     -    0s
         0     0    0.00000    0   24    2.80095    0.00000   100%     -    0s
         0     0    0.00000    0   23    2.80095    0.00000   100%     -    0s
         0     0    0.00000    0   23    2.80095    0.00000   100%     -    0s
         0     0    0.00000    0   23    2.80095    0.00000   100%     -    0s
         0     0    0.00000    0   23    2.80095    0.00000   100%     -    0s
         0     0    0.00000    0   23    2.80095    0.00000   100%     -    0s
         0     0    0.00000    0   23    2.80095    0.00000   100%     -    0s
         0     0    0.00000    0   21    2.80095    0.00000   100%     -    0s
         0     0    0.00000    0   24    2.80095    0.00000   100%     -    0s
         0     0    0.00000    0   19    2.80095    0.00000   100%     -    0s
         0     2    0.00000    0   18    2.80095    0.00000   100%     -    0s
    H    6     6                       2.5644590    0.00000   100%   100    0s
    H   89    49                       2.5644589    0.00759   100%  52.6    0s
    H  101    49                       2.3840108    0.00759   100%  49.3    0s
    H  119    61                       2.3770391    0.09327  96.1%  47.7    0s
    H  365   113                       2.0694975    0.52989  74.4%  45.9    1s
    H  424   120                       2.0694974    0.62767  69.7%  47.6    1s
    H  457    52                       1.4632246    0.67670  53.8%  47.1    1s
    H  525    57                       1.4632241    0.81840  44.1%  50.9    1s
    H  529    54                       1.4632240    0.81840  44.1%  50.9    1s
    
    Cutting planes:
      Learned: 1
    
    Explored 712 nodes (65160 simplex iterations) in 2.33 seconds (2.20 work units)
    Thread count was 1 (of 96 available processors)
    
    Solution count 6: 1.46322 2.0695 2.37704 ... 2.80095
    
    Optimal solution found (tolerance 1.00e-06)
    Best objective 1.463223994325e+00, best bound 1.463223994325e+00, gap 0.0000%
    
    User-callback calls 824, time in user-callback 0.00 sec

... Solving fixed model...

    Gurobi Optimizer version 13.0.0 build v13.0.0rc1 (linux64 - "Oracle Linux Server 9.7")
    
    CPU model: AMD EPYC 7643 48-Core Processor, instruction set [SSE2|AVX|AVX2]
    Thread count: 48 physical cores, 96 logical processors, using up to 1 threads
    
    Non-default parameters:
    TimeLimit  300
    MIPGap  1e-06
    LogToConsole  0
    NonConvex  2
    Threads  1
    
    Optimize a model with 457 rows, 253 columns and 1031 nonzeros (Min)
    Model fingerprint: 0xef20a971
    Model has 13 linear objective coefficients
    Model has 39 quadratic constraints
    Coefficient statistics:
      Matrix range     [1e+00, 5e+01]
      QMatrix range    [8e-02, 2e+00]
      Objective range  [1e+00, 1e+00]
      Bounds range     [1e+00, 5e+01]
      RHS range        [1e+00, 1e+00]
    Presolve removed 455 rows and 234 columns
    Presolve time: 0.00s
    Presolved: 53 rows, 65 columns, 127 nonzeros
    Presolved model has 13 second-order cone constraints
    Ordering time: 0.00s
    
    Barrier statistics:
     AA' NZ     : 3.930e+02
     Factor NZ  : 6.150e+02
     Factor Ops : 1.019e+04 (less than 1 second per iteration)
     Threads    : 1
    
                      Objective                Residual
    Iter       Primal          Dual         Primal    Dual     Compl     Time
       0   5.83592460e+02 -2.71030483e+02  1.81e+01 2.89e+00  1.57e+01     0s
       1   6.51824066e+01 -6.61822328e+01  1.99e-05 3.18e-06  1.46e+00     0s
       2   2.75186551e+00 -3.47414588e+00  5.24e-07 1.62e-07  6.92e-02     0s
       3   2.26275151e+00  2.71075306e-01  7.60e-10 2.99e-08  2.21e-02     0s
       4   1.52281065e+00  1.36408367e+00  1.82e-14 1.40e-09  1.76e-03     0s
       5   1.46682659e+00  1.45615132e+00  3.38e-13 7.64e-11  1.19e-04     0s
       6   1.46337126e+00  1.46306702e+00  3.13e-12 1.55e-12  3.38e-06     0s
       7   1.46323485e+00  1.46322125e+00  7.02e-10 6.84e-14  1.51e-07     0s
       8   1.46322465e+00  1.46322358e+00  4.92e-09 2.34e-12  1.19e-08     0s
    
    Barrier solved model in 8 iterations and 0.00 seconds (0.00 work units)
    Optimal objective 1.46322465e+00
    
    
    User-callback calls 0, time in user-callback 0.00 sec
    Warning: to get QCP duals, please set parameter QCPDual to 1

--- Reading solution for model GAMS_MODEL
***
*** Solver did not provide marginals for model GAMS_MODEL
***
--- Executing after solve: elapsed 0:00:02.374
--- model.gms(1668) 3 Mb
--- model.gms(2469) 5 Mb
--- Putfile results /local/scratch/a/sgusev/repos/k_means/data/gams_gurobi_gdp.hull_exact/no_mode/2026-02-14_17-29-58/original/results.dat
--- Putfile statresults /local/scratch/a/sgusev/repos/k_means/data/gams_gurobi_gdp.hull_exact/no_mode/2026-02-14_17-29-58/original/resultsstat.dat
*** Status: Normal completion
--- Job model.gms Stop 02/14/26 17:30:01 elapsed 0:00:02.375
Original problem solved. Time taken: 3.08919620513916 seconds
Original objective value: 1.463224648061296
